p cnf 6 27
-6 4 -3 6 0
3 -6 -5 -3 0
-6 4 5 0
1 -6 2 -2 0
3 4 6 0
4 6 0
1 0
2 6 0
2 4 5 -1 0
2 4 -3 6 0
1 -6 -5 0
-1 0
1 2 4 -1 0
-6 4 -2 6 0
1 2 -1 0
-1 0
-6 5 0
-2 0
2 -4 -1 0
4 0
-6 -4 -1 -2 0
4 0
5 0
-6 -4 0
-6 -4 4 0
-3 -2 0
1 0
